c read Graph
c width = 41
c time = 30 ms
c width = 6
c time = 64 ms
c width = 6
c time = 4897 ms
s td 49 7 54
b 1 1 2 10
b 2 2 3 10 11
b 3 7 8 17 18
b 4 3 10 11 19
b 5 7 17 18 27
b 6 28 37 38 47
b 7 36 44 45 53
b 8 28 38 47 48
b 9 36 44 52 53
b 10 3 4 5 13
b 11 5 6 7 15
b 12 3 11 12 19 20
b 13 7 16 17 26 27
b 14 3 12 19 20 28
b 15 7 16 26 27 36
b 16 28 29 38 39 48
b 17 35 36 43 44 52
b 18 28 29 39 48 49
b 19 41 49 50 51
b 20 35 36 43 51 52
b 21 5 13 14 15 23
b 22 31 39 40 41 49
b 23 21 29 30 31 39
b 24 3 12 20 21 28 29
b 25 3 12 13 21 28 29
b 26 3 5 13 21 28 29
b 27 13 21 22 23 31
b 28 23 31 32 33 41
b 29 33 41 42 43 51
b 30 15 23 24 25 33
b 31 25 33 34 35 43
b 32 7 15 16 25 26 36
b 33 7 15 25 26 35 36
b 34 5 7 15 25 35 36
b 35 5 13 21 28 29 39 49
b 36 5 13 21 29 31 39 49
b 37 5 13 21 23 31 39 49
b 38 5 13 23 31 39 41 49
b 39 5 13 15 23 31 41 49
b 40 5 15 23 31 33 41 49
b 41 5 15 23 25 33 41 49
b 42 5 15 25 33 41 49 51
b 43 5 15 25 35 36 43 51
b 44 5 15 25 33 35 43 51
b 45 5 15 25 33 41 43 51
b 46 33 41 43 51
b 47 45 53 54
b 48 37 46 47
b 49 8 9 18
1 2
2 4
3 49
3 5
4 12
5 13
6 48
6 8
7 47
7 9
8 16
9 17
10 26
11 34
12 14
13 15
14 24
15 32
16 18
17 20
18 35
19 42
20 43
21 39
22 38
23 36
24 25
25 26
26 35
27 37
28 40
29 46
30 41
31 44
32 33
33 34
34 43
35 36
36 37
37 38
38 39
39 40
40 41
41 42
42 45
43 44
44 45
45 46
